************************************************************************
file with basedata            : md331_.bas
initial value random generator: 1040778060
************************************************************************
projects                      :  1
jobs (incl. supersource/sink ):  22
horizon                       :  159
RESOURCES
  - renewable                 :  2   R
  - nonrenewable              :  2   N
  - doubly constrained        :  0   D
************************************************************************
PROJECT INFORMATION:
pronr.  #jobs rel.date duedate tardcost  MPM-Time
    1     20      0       22        7       22
************************************************************************
PRECEDENCE RELATIONS:
jobnr.    #modes  #successors   successors
   1        1          3           2   3   4
   2        3          3           7   8  10
   3        3          3           5  16  18
   4        3          3           6  15  16
   5        3          3           6   9  15
   6        3          2          17  20
   7        3          1          14
   8        3          3           9  11  17
   9        3          1          20
  10        3          2          13  17
  11        3          2          12  14
  12        3          2          13  21
  13        3          2          15  16
  14        3          2          18  19
  15        3          2          19  20
  16        3          1          19
  17        3          1          21
  18        3          1          21
  19        3          1          22
  20        3          1          22
  21        3          1          22
  22        1          0        
************************************************************************
REQUESTS/DURATIONS:
jobnr. mode duration  R 1  R 2  N 1  N 2
------------------------------------------------------------------------
  1      1     0       0    0    0    0
  2      1     1       9    0    0   10
         2     5       6    0    8    0
         3    10       4    0    0    4
  3      1     1       5    0    8    0
         2     2       0    3    0    9
         3     9       0    2    7    0
  4      1     4       5    0    0    4
         2     7       0    3    0    2
         3    10       3    0    0    1
  5      1     3       9    0    9    0
         2     3       0    7    7    0
         3     6       8    0    3    0
  6      1     8       7    0    5    0
         2     9       0    6    0    5
         3    10       0    3    0    5
  7      1     6       0    6    0    7
         2     6      10    0    0    6
         3    10       0    8    0    4
  8      1     1       6    0    0    5
         2     5       0    4    0    4
         3     6       2    0    0    2
  9      1     1       9    0    9    0
         2     2       6    0    8    0
         3     4       3    0    0    4
 10      1     1       7    0    9    0
         2     8       6    0    4    0
         3    10       0    3    0    5
 11      1     3       0    6    3    0
         2     3       1    0    2    0
         3     5       0    8    0    7
 12      1     2       0    8    0    9
         2     2       9    0    0    9
         3    10       9    0    8    0
 13      1     6       0    4   10    0
         2     9       0    2    9    0
         3    10       2    0    9    0
 14      1     1       0    6    0    4
         2     1       0    7    0    3
         3     5       0    4    6    0
 15      1     4       0    2    0    8
         2     5       8    0    8    0
         3     7       4    0    0    7
 16      1     3       3    0    0    8
         2     6       0    4    1    0
         3     9       0    4    0    6
 17      1     4       8    0    0    7
         2     5       8    0    0    4
         3     5       0    4    5    0
 18      1     5       3    0    0    5
         2     6       2    0    7    0
         3     6       3    0    5    0
 19      1     5       4    0    0   10
         2     7       3    0    3    0
         3     9       0    8    2    0
 20      1     5       3    0    0    5
         2     8       0    2    2    0
         3    10       0    2    1    0
 21      1     2       3    0    5    0
         2     4       2    0    4    0
         3     8       0    2    0    9
 22      1     0       0    0    0    0
************************************************************************
RESOURCEAVAILABILITIES:
  R 1  R 2  N 1  N 2
   29   20   59   64
************************************************************************
MAXIMAL LAGS:
from  to  type  delay
    1   22   ES      0
    1    2   ES      0
    2   22   ES      0
    1    3   ES      0
    3   22   ES      0
    1    4   ES      0
    4   22   ES      0
    1    5   ES      0
    5   22   ES      0
    1    6   ES      0
    6   22   ES      0
    1    7   ES      0
    7   22   ES      0
    1    8   ES      0
    8   22   ES      0
    1    9   ES      0
    9   22   ES      0
    1   10   ES      0
   10   22   ES      0
    1   11   ES      0
   11   22   ES      0
    1   12   ES      0
   12   22   ES      0
    1   13   ES      0
   13   22   ES      0
    1   14   ES      0
   14   22   ES      0
    1   15   ES      0
   15   22   ES      0
    1   16   ES      0
   16   22   ES      0
    1   17   ES      0
   17   22   ES      0
    1   18   ES      0
   18   22   ES      0
    1   19   ES      0
   19   22   ES      0
    1   20   ES      0
   20   22   ES      0
    1   21   ES      0
   21   22   ES      0
    1   22   ES      0
    2    7   SS      7
    2    7   SE     10
    2    7   ES    -10
    2    7   EE     -3
    2    8   SS      5
    2    8   SE      0
    2    8   ES      8
    2    8   EE     -2
    2   10   SS     -8
    2   10   SE      9
    2   10   ES     10
    2   10   EE     11
    3    5   SS      9
    3    5   SE      4
    3    5   ES    -10
    3    5   EE      8
    3   16   SS      9
    3   16   SE      1
    3   16   ES      4
    3   16   EE     -1
    3   18   SS    -12
    3   18   SE     -1
    3   18   ES     -3
    3   18   EE     -7
    4    6   SS     -6
    4    6   SE     -2
    4    6   ES     12
    4    6   EE      3
    4   15   SS     -6
    4   15   SE     -5
    4   15   ES     -8
    4   15   EE     -8
    4   16   SS    -10
    4   16   SE     -3
    4   16   ES     -9
    4   16   EE      4
    5    6   SS     12
    5    6   SE      5
    5    6   ES     11
    5    6   EE      4
    5    9   SS    -11
    5    9   SE      9
    5    9   ES     -2
    5    9   EE     12
    5   15   SS      7
    5   15   SE     -8
    5   15   ES      7
    5   15   EE      0
    6   17   SS     -8
    6   17   SE     -7
    6   17   ES     -7
    6   17   EE     10
    6   20   SS     12
    6   20   SE      7
    6   20   ES     -7
    6   20   EE     11
    7   14   SS      2
    7   14   SE    -11
    7   14   ES      1
    7   14   EE     -1
    8    9   SS      9
    8    9   SE     11
    8    9   ES     -5
    8    9   EE      2
    8   11   SS      7
    8   11   SE     -3
    8   11   ES     12
    8   11   EE     11
    8   17   SS      2
    8   17   SE     -5
    8   17   ES      5
    8   17   EE     -5
    9   20   SS     -3
    9   20   SE      3
    9   20   ES     -6
    9   20   EE     -1
   10   13   SS      9
   10   13   SE      6
   10   13   ES      2
   10   13   EE      2
   10   17   SS     12
   10   17   SE     -3
   10   17   ES     12
   10   17   EE      0
   11   12   SS      4
   11   12   SE      4
   11   12   ES      1
   11   12   EE     -7
   11   14   SS     -6
   11   14   SE      7
   11   14   ES     -8
   11   14   EE     -4
   12   13   SS    -11
   12   13   SE      8
   12   13   ES      3
   12   13   EE     -1
   12   21   SS      5
   12   21   SE     -9
   12   21   ES     10
   12   21   EE      4
   13   15   SS     -9
   13   15   SE     -3
   13   15   ES    -10
   13   15   EE     12
   13   16   SS     -7
   13   16   SE     -4
   13   16   ES      2
   13   16   EE      4
   14   18   SS     -8
   14   18   SE      1
   14   18   ES    -10
   14   18   EE     -5
   14   19   SS      2
   14   19   SE     -1
   14   19   ES    -12
   14   19   EE      1
   15   19   SS    -11
   15   19   SE      0
   15   19   ES      4
   15   19   EE     -1
   15   20   SS     -5
   15   20   SE      0
   15   20   ES    -10
   15   20   EE     -1
   16   19   SS     -5
   16   19   SE    -12
   16   19   ES     -2
   16   19   EE     -9
   17   21   SS     10
   17   21   SE      8
   17   21   ES     -2
   17   21   EE     -8
   18   21   SS     -8
   18   21   SE    -11
   18   21   ES     -3
   18   21   EE      3
************************************************************************
